2.467 !Line perpend. to K1-G and touching K1 (this is the header of the input kpts file)
25
Reciprocal coords w.r.t. the SCRL vectors:
  -0.2720257   0.4080385   0.0000000  1
  -0.2493569   0.3740353   0.0000000  1
  -0.2266881   0.3400321   0.0000000  1
  -0.2040193   0.3060289   0.0000000  1
  -0.1813505   0.2720257   0.0000000  1
  -0.1586816   0.2380225   0.0000000  1
  -0.1360128   0.2040193   0.0000000  1
  -0.1133440   0.1700160   0.0000000  1
  -0.0906752   0.1360128   0.0000000  1
  -0.0680064   0.1020096   0.0000000  1
  -0.0453376   0.0680064   0.0000000  1
  -0.0226688   0.0340032   0.0000000  1
   0.0000000   0.0000000   0.0000000  1
   0.0226688  -0.0340032   0.0000000  1
   0.0453376  -0.0680064   0.0000000  1
   0.0680064  -0.1020096   0.0000000  1
   0.0906752  -0.1360128   0.0000000  1
   0.1133440  -0.1700160   0.0000000  1
   0.1360128  -0.2040193   0.0000000  1
   0.1586816  -0.2380225   0.0000000  1
   0.1813505  -0.2720257   0.0000000  1
   0.2040193  -0.3060289   0.0000000  1
   0.2266881  -0.3400321   0.0000000  1
   0.2493569  -0.3740353   0.0000000  1
   0.2720257  -0.4080385   0.0000000  1


! These SC-KPTS unfold onto the pc-kpts listed below: 
! (Fractional coords. wrt. the pc rec. latt. vectors) 
2.467 !Line perpend. to K1-G and touching K1
25
Line-mode
Cartesian
0.498823220268 0.469346171834 0.0    1 ! -0.4
0.655877318111 0.197320494833 0.0    1 ! 0.4
