2.467 !Line perpend. to K1-G and touching K1 (this is the header of the input kpts file)
25
Reciprocal coords w.r.t. the SCRL vectors:
   1.7279743   1.4080385   0.0000000  1
   1.7506431   1.3740353   0.0000000  1
   1.7733119   1.3400321   0.0000000  1
   1.7959807   1.3060289   0.0000000  1
   1.8186495   1.2720257   0.0000000  1
   1.8413184   1.2380225   0.0000000  1
   1.8639872   1.2040193   0.0000000  1
   1.8866560   1.1700160   0.0000000  1
   1.9093248   1.1360128   0.0000000  1
   1.9319936   1.1020096   0.0000000  1
   1.9546624   1.0680064   0.0000000  1
   1.9773312   1.0340032   0.0000000  1
   2.0000000   1.0000000   0.0000000  1
   2.0226688   0.9659968   0.0000000  1
   2.0453376   0.9319936   0.0000000  1
   2.0680064   0.8979904   0.0000000  1
   2.0906752   0.8639872   0.0000000  1
   2.1133440   0.8299840   0.0000000  1
   2.1360128   0.7959807   0.0000000  1
   2.1586816   0.7619775   0.0000000  1
   2.1813505   0.7279743   0.0000000  1
   2.2040193   0.6939711   0.0000000  1
   2.2266881   0.6599679   0.0000000  1
   2.2493569   0.6259647   0.0000000  1
   2.2720257   0.5919615   0.0000000  1


! These SC-KPTS correspond exacly to the pc-kpts listed below: 
! (Fractional coords. wrt. the pc rec. latt. vectors) 
2.467 !Line perpend. to K1-G and touching K1
25
Line-mode
Cartesian
0.498823220268 0.469346171834 0.0    1 ! -0.4
0.655877318111 0.197320494833 0.0    1 ! 0.4
