2.467 !Line perpend. to K1-G and touching K1
25
Line-mode
Cartesian
0.498823220268 0.469346171834 0.0    1 ! -0.4
0.655877318111 0.197320494833 0.0    1 ! 0.4
