Kpoints along some high symmetry directions on the pcbz of Si (diamond structure)
23 27 9 29
Line-mode
Reciprocal
0.500 0.500 0.500   1  ! L
0.000 0.000 0.000   1  ! G

0.000 0.000 0.000   1  ! G
0.500 0.000 0.500   1  ! X

0.500 0.000 0.500   1  ! X
0.625 0.250 0.625   1  ! U

0.375 0.375 0.750   1  ! K
0.000 0.000 0.000   1  ! G
