2.4664403500000001 !kpoints for bandstructure gamma-M1
 20 20 10
Line-mode
Reciprocal
   0.333333333  0.666666667  0.000000000    1 ! K1
   0.000000000  0.000000000  0.000000000    1 ! Gamma

   0.000000000  0.000000000  0.000000000    1 ! Gamma
   0.500000000  0.500000000  0.000000000    1 ! M1

   0.500000000  0.500000000  0.000000000    1 ! M1
   0.333333333  0.666666667  0.000000000    1 ! K1
