&control
    title = 'Graphene, rectangular SC - Self Consistent calculation',
    prefix = 'graphene_SC_exmpl1_BandUP',
    calculation = 'scf',
    restart_mode = 'from_scratch',
    disk_io = 'low',
    wf_collect = .TRUE.

    tefield = .true.,
    dipfield = .true.
/
&system
    smearing = 'marzari-vanderbilt',
    occupations = 'tetrahedra',
    ibrav = 0,
    A = 2.467,
    nat = 24,
    ntyp = 1,
    ecutwfc = 30

    edir = 3,
    emaxpos = 0.85,
    eopreg = 0.05,
    eamp = 0
/
&electrons
  conv_thr = 1.0d-6
/
ATOMIC_SPECIES
    C 12.000 C.pbe-rrkjus.UPF
CELL_PARAMETERS alat
    3.464101614   0.000000000   0.000000000
    0.000000000   3.000000000   0.000000000
    0.000000000   0.000000000   6.080259424
ATOMIC_POSITIONS alat
C   0.288675133   0.500000000   3.040129712
C   0.577350267   0.000000000   3.040129712
C   1.154700536   0.000000000   3.040129712
C   1.443375670   0.500000000   3.040129712
C   2.020725940   0.500000000   3.040129712
C   2.309401074   0.000000000   3.040129712
C   2.886751343   0.000000000   3.040129712
C   3.175426477   0.500000000   3.040129712
C   0.288675133   1.500000000   3.040129712
C   0.577350267   1.000000000   3.040129712
C   1.154700536   1.000000000   3.040129712
C   1.443375670   1.500000000   3.040129712
C   2.020725940   1.500000000   3.040129712
C   2.309401074   1.000000000   3.040129712
C   2.886751343   1.000000000   3.040129712
C   3.175426477   1.500000000   3.040129712
C   0.288675133   2.500000000   3.040129712
C   0.577350267   2.000000000   3.040129712
C   1.154700536   2.000000000   3.040129712
C   1.443375670   2.500000000   3.040129712
C   2.020725940   2.500000000   3.040129712
C   2.309401074   2.000000000   3.040129712
C   2.886751343   2.000000000   3.040129712
C   3.175426477   2.500000000   3.040129712
K_POINTS AUTOMATIC
    15 17 1 0 0 0
