# Graphene SC, getting wavefunctions

chkprim 0 # Tell ABINIT to ignore the fact that this is not a PC

#Definition of the unit cell
scalecart 3*2.467 # Scaling factor for the lattice vectors 
acell 3*1 angstrom # Setting length units to angstrom
rprim 
3.464101614   0.000000000   0.000000000
0.000000000   3.000000000   0.000000000
0.000000000   0.000000000   6.080259424

#Definition of the atom types
ntypat 1 # Number of types of atoms
# Atomic numbers  
znucl 6 

#Definition of the atoms
natom 24           
typat 24*1
# Coordinates         
xred # Reduced coordinates
   0.083333333   0.166666667   0.500000000
   0.166666666   0.000000000   0.500000000
   0.333333333   0.000000000   0.500000000
   0.416666666   0.166666667   0.500000000
   0.583333333   0.166666667   0.500000000
   0.666666666   0.000000000   0.500000000
   0.833333333   0.000000000   0.500000000
   0.916666666   0.166666667   0.500000000
   0.083333333   0.500000000   0.500000000
   0.166666666   0.333333333   0.500000000
   0.333333333   0.333333333   0.500000000
   0.416666666   0.500000000   0.500000000
   0.583333333   0.500000000   0.500000000
   0.666666666   0.333333333   0.500000000
   0.833333333   0.333333333   0.500000000
   0.916666666   0.500000000   0.500000000
   0.083333333   0.833333333   0.500000000
   0.166666666   0.666666667   0.500000000
   0.333333333   0.666666667   0.500000000
   0.416666666   0.833333333   0.500000000
   0.583333333   0.833333333   0.500000000
   0.666666666   0.666666667   0.500000000
   0.833333333   0.666666667   0.500000000
   0.916666666   0.833333333   0.500000000

#Definition of the planewave basis set
ecut 20.0 # Maximal plane-wave kinetic energy cut-off, in Hartree

#Definition of the SCF procedure
irdden 1 # read density from file specified in .files
iscf -2           # Non-SC calc
nstep 100         # Maximal number of SCF cycles (default was 1 in v5.3)
tolwfr 1.0d-15    # Convergence criterion
nband 120 

# K-points
kptopt 0 # Read directly nkpt, kpt, kptnrm and wtk.
nkpt 24
kpt # Direct/fractional/reduced kpt coordinates follow below
   0.00000   0.00000   0.00000
  -0.08333  -0.04167   0.00000
  -0.16667  -0.08333   0.00000
  -0.25000  -0.12500   0.00000
  -0.33333  -0.16667   0.00000
  -0.41667  -0.20833   0.00000
  -0.50000  -0.25000   0.00000
   0.41667  -0.29167   0.00000
   0.33333  -0.33333   0.00000
   0.25000  -0.37500   0.00000
   0.16667  -0.41667   0.00000
   0.08333  -0.45833   0.00000
   0.00000  -0.50000   0.00000
   0.08333   0.00000   0.00000
   0.16667   0.00000   0.00000
   0.25000   0.00000   0.00000
   0.33333   0.00000   0.00000
   0.41667   0.00000   0.00000
  -0.50000   0.00000   0.00000
   0.00000   0.08333   0.00000
   0.00000   0.16667   0.00000
   0.00000   0.25000   0.00000
   0.00000   0.33333   0.00000
   0.00000   0.41667   0.00000
