Si ! Bulk Si, primitive cell (diamond structure)
   5.430000000
   0.000000000   0.500000000   0.500000000
   0.500000000   0.000000000   0.500000000
   0.500000000   0.500000000   0.000000000
  Si
  2
Selective Dynamics  
Direct    
  -0.125000000  -0.125000000  -0.125000000  F  F  F
   0.125000000   0.125000000   0.125000000  F  F  F
