Kpoints for bandstructure K-G-M-K
 Auto
Line-mode
Reciprocal
  0.333333333  0.666666666  0.000000000    1 ! K
  0.000000000  0.000000000  0.000000000    1 ! Gamma

  0.000000000  0.000000000  0.000000000    1 ! Gamma
  0.500000000  0.500000000  0.000000000    1 ! M

  0.500000000  0.500000000  0.000000000    1 ! M
  0.333333333  0.666666666  0.000000000    1 ! K
