2.467 (this is the header of the input kpts file)
25
Reciprocal coords w.r.t. the SCRL vectors:
   0.0000000   0.0000000   0.0000000  1
   0.0416667   0.0625000   0.0000000  1
   0.0833333   0.1250000   0.0000000  1
   0.1250000   0.1875000   0.0000000  1
   0.1666667   0.2500000   0.0000000  1
   0.2083333   0.3125000   0.0000000  1
   0.2500000   0.3750000   0.0000000  1
   0.2916667   0.4375000   0.0000000  1
   0.3333333   0.5000000   0.0000000  1
   0.3750000   0.5625000   0.0000000  1
   0.4166667   0.6250000   0.0000000  1
   0.4583333   0.6875000   0.0000000  1
   0.5000000   0.7500000   0.0000000  1
   0.5416667   0.8125000   0.0000000  1
   0.5833333   0.8750000   0.0000000  1
   0.6250000   0.9375000   0.0000000  1
   0.6666667   1.0000000   0.0000000  1
   0.7083333   1.0625000   0.0000000  1
   0.7500000   1.1250000   0.0000000  1
   0.7916667   1.1875000   0.0000000  1
   0.8333333   1.2500000   0.0000000  1
   0.8750000   1.3125000   0.0000000  1
   0.9166667   1.3750000   0.0000000  1
   0.9583333   1.4375000   0.0000000  1
   1.0000000   1.5000000   0.0000000  1


! These SC-KPTS correspond exacly to the pc-kpts listed below: 
! (Fractional coords. wrt. the pc rec. latt. vectors) 
2.467
 25
Line-mode 1.6979287434219599
Reciprocal
   0.000000000  0.000000000  0.000000000    1 ! Gamma
   0.000000000  0.500000000  0.000000000    1 ! M2
