2.467 (this is the header of the input kpts file)
12
Reciprocal coords w.r.t. the SCRL vectors:
   0.0000000   0.0000000   0.0000000  1
   0.0000000  -0.0833333   0.0000000  1
   0.0000000  -0.1666667   0.0000000  1
   0.0000000  -0.2500000   0.0000000  1
   0.0000000  -0.3333333   0.0000000  1
   0.0000000  -0.4166667   0.0000000  1
   0.0000000   0.5000000   0.0000000  1
   0.0000000   0.4166667   0.0000000  1
   0.0000000   0.3333333   0.0000000  1
   0.0000000   0.2500000   0.0000000  1
   0.0000000   0.1666667   0.0000000  1
   0.0000000   0.0833333   0.0000000  1


! These SC-KPTS unfold onto the pc-kpts listed below: 
! (Fractional coords. wrt. the pc rec. latt. vectors) 
2.467
 25
Line-mode 0.000000000
Reciprocal
  -0.333333333  0.333333333  0.000000000    1 ! K2
   0.000000000  0.000000000  0.000000000    1 ! Gamma
