2.467
 25
Line-mode 0.000000000
Reciprocal
  -0.333333333  0.333333333  0.000000000    1 ! K2
   0.000000000  0.000000000  0.000000000    1 ! Gamma
