# Bulk Si, calculating the charge density

chkprim 0 # Tell ABINIT to ignore the fact that this is not a PC

#Definition of the unit cell
scalecart 3*5.43 # Scaling factor for the lattice vectors 
acell 1 1 1 angstrom # Stting length units to angstrom
rprim 1 0 0  0 1 0  0 0 1 

#Definition of the atom types
ntypat 1 # Number of types of atoms
# Atomic numbers  
znucl 14 

#Definition of the atoms
natom 8           
typat 8*1
# Coordinates         
xred # Reduced coordinates
   0.000000000   0.000000000   0.000000000
   0.000000000   0.500000000   0.500000000
   0.500000000   0.500000000   0.000000000
   0.500000000   0.000000000   0.500000000
   0.750000000   0.250000000   0.750000000
   0.250000000   0.250000000   0.250000000
   0.250000000   0.750000000   0.750000000
   0.750000000   0.750000000   0.250000000

#Definition of the planewave basis set
ecut 10.0 # Maximal plane-wave kinetic energy cut-off, in Hartree

#Definition of the SCF procedure
#getden -1         # Use the charge density obtained in step #1
irdden 1 # read density from file specified in .files
iscf -2           # Non-SC calc
nstep 100         # Maximal number of SCF cycles (default was 1 in v5.3)
tolwfr 1.0d-10    # Convergence criterium
nband 48 

# K-points
kptopt 0 # Read directly nkpt, kpt, kptnrm and wtk.
nkpt 70
kpt # Direct kpt coordinates follow below
  -0.50000  -0.50000  -0.50000
   0.47727   0.47727   0.47727
   0.45455   0.45455   0.45455
   0.43182   0.43182   0.43182
   0.40909   0.40909   0.40909
   0.38636   0.38636   0.38636
   0.36364   0.36364   0.36364
   0.34091   0.34091   0.34091
   0.31818   0.31818   0.31818
   0.29545   0.29545   0.29545
   0.27273   0.27273   0.27273
   0.25000   0.25000   0.25000
   0.22727   0.22727   0.22727
   0.20455   0.20455   0.20455
   0.18182   0.18182   0.18182
   0.15909   0.15909   0.15909
   0.13636   0.13636   0.13636
   0.11364   0.11364   0.11364
   0.09091   0.09091   0.09091
   0.06818   0.06818   0.06818
   0.04545   0.04545   0.04545
   0.02273   0.02273   0.02273
   0.00000   0.00000   0.00000
   0.00000   0.03846   0.00000
   0.00000   0.07692   0.00000
   0.00000   0.11538   0.00000
   0.00000   0.15385   0.00000
   0.00000   0.19231   0.00000
   0.00000   0.23077   0.00000
   0.00000   0.26923   0.00000
   0.00000   0.30769   0.00000
   0.00000   0.34615   0.00000
   0.00000   0.38462   0.00000
   0.00000   0.42308   0.00000
   0.00000   0.46154   0.00000
   0.00000  -0.50000   0.00000
   0.03125   0.00000   0.03125
   0.06250   0.00000   0.06250
   0.09375   0.00000   0.09375
   0.12500   0.00000   0.12500
   0.15625   0.00000   0.15625
   0.18750   0.00000   0.18750
   0.21875   0.00000   0.21875
   0.25000   0.00000   0.25000
  -0.27679  -0.27679   0.00000
  -0.30357  -0.30357   0.00000
  -0.33036  -0.33036   0.00000
  -0.35714  -0.35714   0.00000
  -0.38393  -0.38393   0.00000
  -0.41071  -0.41071   0.00000
  -0.43750  -0.43750   0.00000
  -0.46429  -0.46429   0.00000
  -0.49107  -0.49107   0.00000
   0.48214   0.48214   0.00000
   0.45536   0.45536   0.00000
   0.42857   0.42857   0.00000
   0.40179   0.40179   0.00000
   0.37500   0.37500   0.00000
   0.34821   0.34821   0.00000
   0.32143   0.32143   0.00000
   0.29464   0.29464   0.00000
   0.26786   0.26786   0.00000
   0.24107   0.24107   0.00000
   0.21429   0.21429   0.00000
   0.16071   0.16071   0.00000
   0.13393   0.13393   0.00000
   0.10714   0.10714   0.00000
   0.08036   0.08036   0.00000
   0.05357   0.05357   0.00000
   0.02679   0.02679   0.00000

