2.467  ! Scaling constant
 25 25 13
Line-mode 0.000000000  ! The zero means that you want to start the kpoints line at k=0
Reciprocal
   0.333333333  0.666666667  0.000000000    1 ! K
   0.000000000  0.000000000  0.000000000    1 ! Gamma

   0.000000000  0.000000000  0.000000000    1 ! Gamma
   0.500000000  0.500000000  0.000000000    1 ! M

   0.500000000  0.500000000  0.000000000    1 ! M
   0.333333333  0.666666667  0.000000000    1 ! K
