2.467
 13
Line-mode 3.1683781686735077
Reciprocal
   0.500000000  0.500000000  0.000000000    1 ! M1
   0.333333333  0.666666667  0.000000000    1 ! K1
