2.467 (this is the header of the input kpts file)
13
Reciprocal coords w.r.t. the SCRL vectors:
   2.0000000   0.0000000   0.0000000  1
   2.0000000   0.0833333   0.0000000  1
   2.0000000   0.1666667   0.0000000  1
   2.0000000   0.2500000   0.0000000  1
   2.0000000   0.3333333   0.0000000  1
   2.0000000   0.4166667   0.0000000  1
   2.0000000   0.5000000   0.0000000  1
   2.0000000   0.5833333   0.0000000  1
   2.0000000   0.6666667   0.0000000  1
   2.0000000   0.7500000   0.0000000  1
   2.0000000   0.8333333   0.0000000  1
   2.0000000   0.9166667   0.0000000  1
   2.0000000   1.0000000   0.0000000  1


! These SC-KPTS correspond exacly to the pc-kpts listed below: 
! (Fractional coords. wrt. the pc rec. latt. vectors) 
2.467
 13
Line-mode 3.1683781686735077
Reciprocal
   0.500000000  0.500000000  0.000000000    1 ! M1
   0.333333333  0.666666667  0.000000000    1 ! K1
