 C ! Graphene - Zigzag                                                                              
   2.467000000
   1.732050807   0.000000000   0.000000000
   0.000000000   1.000000000   0.000000000
   0.000000000   0.000000000   6.080259424
  C
  4
Selective Dynamics  
Cartesian 
   0.288675133   0.500000000   3.040129712  F  F  F
   0.577350267   0.000000000   3.040129712  F  F  F
   1.154700536   0.000000000   3.040129712  F  F  F
   1.443375670   0.500000000   3.040129712  F  F  F
