 C ! Graphene, PC                                                               
   2.467000000
   0.866025403  -0.500000000   0.000000000
   0.866025403   0.500000000   0.000000000
   0.000000000   0.000000000   6.080259424
  C
  2
Selective Dynamics  
Cartesian 
   0.577350268   0.000000000   3.040129712  F  F  F
   1.154700537   0.000000000   3.040129712  F  F  F
