K-points along the directions K1-Gamma, Gamma-M1, M1-K1
 25 25 13
Line-mode
Reciprocal
   0.333333333  0.666666667  0.000000000    1 ! K
   0.000000000  0.000000000  0.000000000    1 ! Gamma

   0.000000000  0.000000000  0.000000000    1 ! Gamma
   0.500000000  0.500000000  0.000000000    1 ! M

   0.500000000  0.500000000  0.000000000    1 ! M
   0.333333333  0.666666667  0.000000000    1 ! K
