2.467 !Kpoints for bandstructure K-G_G-M_M-K (graphene, prim. cell)
 25 25 13
Line-mode
Reciprocal
   0.333333333  0.666666667  0.000000000    1 ! K1
   0.000000000  0.000000000  0.000000000    1 ! Gamma

   0.000000000  0.000000000  0.000000000    1 ! Gamma
   0.500000000  0.500000000  0.000000000    1 ! M1

   0.500000000  0.500000000  0.000000000    1 ! M1
   0.333333333  0.666666667  0.000000000    1 ! K1
