2.467 (this is the header of the input kpts file)
13
Reciprocal coords w.r.t. the SCRL vectors:
   1.0000000   1.5000000   0.0000000  1
   1.0833333   1.4583333   0.0000000  1
   1.1666667   1.4166667   0.0000000  1
   1.2500000   1.3750000   0.0000000  1
   1.3333333   1.3333333   0.0000000  1
   1.4166667   1.2916667   0.0000000  1
   1.5000000   1.2500000   0.0000000  1
   1.5833333   1.2083333   0.0000000  1
   1.6666667   1.1666667   0.0000000  1
   1.7500000   1.1250000   0.0000000  1
   1.8333333   1.0833333   0.0000000  1
   1.9166667   1.0416667   0.0000000  1
   2.0000000   1.0000000   0.0000000  1


! These SC-KPTS correspond exacly to the pc-kpts listed below: 
! (Fractional coords. wrt. the pc rec. latt. vectors) 
2.467
 13
Line-mode 3.1683781686735077
Reciprocal
   0.000000000  0.500000000  0.000000000    1 ! M2
   0.333333333  0.666666667  0.000000000    1 ! K1
