2.467
 25
Line-mode 1.6979287434219599
Reciprocal
   0.000000000  0.000000000  0.000000000    1 ! Gamma
   0.000000000  0.500000000  0.000000000    1 ! M2
