2.46644034998 !Line perpend. to K1-G and touching K1
25
Line-mode -0.4
Cartesian
0.498841034482 0.469315316711 0.0    1
0.655859503898 0.197351349956 0.0    1
