Kpoints along some high symmetry directions on the pcbz of Si (diamond structure)
16 20 24 12 8
Line-mode 0.000000000
Reciprocal
0.500 0.250 0.750   1  ! W
0.500 0.500 0.500   1  ! L

0.500 0.500 0.500   1  ! L
0.000 0.000 0.000   1  ! G

0.000 0.000 0.000   1  ! G
0.500 0.000 0.500   1  ! X

0.500 0.000 0.500   1  ! X
0.500 0.250 0.750   1  ! W

0.500 0.250 0.750   1  ! W
0.375 0.375 0.750   1  ! K
