Cu C ! Graphene@Cu(111)
   1.00000000000000     
    12.8160000000000007    0.0000000000000000    0.0000000000000000
     0.0000000000000000   22.1979631499999996    0.0000000000000000
     0.0000000000000000    0.0000000000000000   31.3177336470000007
   Cu   C 
   250   108
Selective dynamics
Direct
  0.0000000000000000  0.0666666666666700  0.3193079075489820   F   F   F
  0.2000000000000028  0.0666666666666700  0.3193079075489820   F   F   F
  0.3999999999999986  0.0666666666666700  0.3193079075489820   F   F   F
  0.6000000000000014  0.0666666666666700  0.3193079075489820   F   F   F
  0.7999999999999972  0.0666666666666700  0.3193079075489820   F   F   F
  0.1000000000000014  0.1666666666666643  0.3193079075489820   F   F   F
  0.2999999999999972  0.1666666666666643  0.3193079075489820   F   F   F
  0.5000000000000000  0.1666666666666643  0.3193079075489820   F   F   F
  0.7000000000000028  0.1666666666666643  0.3193079075489820   F   F   F
  0.8999999999999986  0.1666666666666643  0.3193079075489820   F   F   F
  0.0000000000000000  0.2666666666666657  0.3193079075489820   F   F   F
  0.2000000000000028  0.2666666666666657  0.3193079075489820   F   F   F
  0.3999999999999986  0.2666666666666657  0.3193079075489820   F   F   F
  0.6000000000000014  0.2666666666666657  0.3193079075489820   F   F   F
  0.7999999999999972  0.2666666666666657  0.3193079075489820   F   F   F
  0.1000000000000014  0.3666666666666671  0.3193079075489820   F   F   F
  0.2999999999999972  0.3666666666666671  0.3193079075489820   F   F   F
  0.5000000000000000  0.3666666666666671  0.3193079075489820   F   F   F
  0.7000000000000028  0.3666666666666671  0.3193079075489820   F   F   F
  0.8999999999999986  0.3666666666666671  0.3193079075489820   F   F   F
  0.0000000000000000  0.4666666666666686  0.3193079075489820   F   F   F
  0.2000000000000028  0.4666666666666686  0.3193079075489820   F   F   F
  0.3999999999999986  0.4666666666666686  0.3193079075489820   F   F   F
  0.6000000000000014  0.4666666666666686  0.3193079075489820   F   F   F
  0.7999999999999972  0.4666666666666686  0.3193079075489820   F   F   F
  0.1000000000000014  0.5666666666666700  0.3193079075489820   F   F   F
  0.2999999999999972  0.5666666666666700  0.3193079075489820   F   F   F
  0.5000000000000000  0.5666666666666700  0.3193079075489820   F   F   F
  0.7000000000000028  0.5666666666666700  0.3193079075489820   F   F   F
  0.8999999999999986  0.5666666666666700  0.3193079075489820   F   F   F
  0.0000000000000000  0.6666666666666643  0.3193079075489820   F   F   F
  0.2000000000000028  0.6666666666666643  0.3193079075489820   F   F   F
  0.3999999999999986  0.6666666666666643  0.3193079075489820   F   F   F
  0.6000000000000014  0.6666666666666643  0.3193079075489820   F   F   F
  0.7999999999999972  0.6666666666666643  0.3193079075489820   F   F   F
  0.1000000000000014  0.7666666666666657  0.3193079075489820   F   F   F
  0.2999999999999972  0.7666666666666657  0.3193079075489820   F   F   F
  0.5000000000000000  0.7666666666666657  0.3193079075489820   F   F   F
  0.7000000000000028  0.7666666666666657  0.3193079075489820   F   F   F
  0.8999999999999986  0.7666666666666657  0.3193079075489820   F   F   F
  0.0000000000000000  0.8666666666666671  0.3193079075489820   F   F   F
  0.2000000000000028  0.8666666666666671  0.3193079075489820   F   F   F
  0.3999999999999986  0.8666666666666671  0.3193079075489820   F   F   F
  0.6000000000000014  0.8666666666666671  0.3193079075489820   F   F   F
  0.7999999999999972  0.8666666666666671  0.3193079075489820   F   F   F
  0.1000000000000014  0.9666666666666686  0.3193079075489820   F   F   F
  0.2999999999999972  0.9666666666666686  0.3193079075489820   F   F   F
  0.5000000000000000  0.9666666666666686  0.3193079075489820   F   F   F
  0.7000000000000028  0.9666666666666686  0.3193079075489820   F   F   F
  0.8999999999999986  0.9666666666666686  0.3193079075489820   F   F   F
  0.0000000000000000  0.0000000000000000  0.3861340725451399   F   F   F
  0.2000000000000028  0.0000000000000000  0.3861340725451399   F   F   F
  0.3999999999999986  0.0000000000000000  0.3861340725451399   F   F   F
  0.6000000000000014  0.0000000000000000  0.3861340725451399   F   F   F
  0.7999999999999972  0.0000000000000000  0.3861340725451399   F   F   F
  0.1000000000000014  0.1000000000000014  0.3861340725451399   F   F   F
  0.2999999999999972  0.1000000000000014  0.3861340725451399   F   F   F
  0.5000000000000000  0.1000000000000014  0.3861340725451399   F   F   F
  0.7000000000000028  0.1000000000000014  0.3861340725451399   F   F   F
  0.8999999999999986  0.1000000000000014  0.3861340725451399   F   F   F
  0.0000000000000000  0.2000000000000028  0.3861340725451399   F   F   F
  0.2000000000000028  0.2000000000000028  0.3861340725451399   F   F   F
  0.3999999999999986  0.2000000000000028  0.3861340725451399   F   F   F
  0.6000000000000014  0.2000000000000028  0.3861340725451399   F   F   F
  0.7999999999999972  0.2000000000000028  0.3861340725451399   F   F   F
  0.1000000000000014  0.2999999999999972  0.3861340725451399   F   F   F
  0.2999999999999972  0.2999999999999972  0.3861340725451399   F   F   F
  0.5000000000000000  0.2999999999999972  0.3861340725451399   F   F   F
  0.7000000000000028  0.2999999999999972  0.3861340725451399   F   F   F
  0.8999999999999986  0.2999999999999972  0.3861340725451399   F   F   F
  0.0000000000000000  0.3999999999999986  0.3861340725451399   F   F   F
  0.2000000000000028  0.3999999999999986  0.3861340725451399   F   F   F
  0.3999999999999986  0.3999999999999986  0.3861340725451399   F   F   F
  0.6000000000000014  0.3999999999999986  0.3861340725451399   F   F   F
  0.7999999999999972  0.3999999999999986  0.3861340725451399   F   F   F
  0.1000000000000014  0.5000000000000000  0.3861340725451399   F   F   F
  0.2999999999999972  0.5000000000000000  0.3861340725451399   F   F   F
  0.5000000000000000  0.5000000000000000  0.3861340725451399   F   F   F
  0.7000000000000028  0.5000000000000000  0.3861340725451399   F   F   F
  0.8999999999999986  0.5000000000000000  0.3861340725451399   F   F   F
  0.0000000000000000  0.6000000000000014  0.3861340725451399   F   F   F
  0.2000000000000028  0.6000000000000014  0.3861340725451399   F   F   F
  0.3999999999999986  0.6000000000000014  0.3861340725451399   F   F   F
  0.6000000000000014  0.6000000000000014  0.3861340725451399   F   F   F
  0.7999999999999972  0.6000000000000014  0.3861340725451399   F   F   F
  0.1000000000000014  0.7000000000000028  0.3861340725451399   F   F   F
  0.2999999999999972  0.7000000000000028  0.3861340725451399   F   F   F
  0.5000000000000000  0.7000000000000028  0.3861340725451399   F   F   F
  0.7000000000000028  0.7000000000000028  0.3861340725451399   F   F   F
  0.8999999999999986  0.7000000000000028  0.3861340725451399   F   F   F
  0.0000000000000000  0.7999999999999972  0.3861340725451399   F   F   F
  0.2000000000000028  0.7999999999999972  0.3861340725451399   F   F   F
  0.3999999999999986  0.7999999999999972  0.3861340725451399   F   F   F
  0.6000000000000014  0.7999999999999972  0.3861340725451399   F   F   F
  0.7999999999999972  0.7999999999999972  0.3861340725451399   F   F   F
  0.1000000000000014  0.8999999999999986  0.3861340725451399   F   F   F
  0.2999999999999972  0.8999999999999986  0.3861340725451399   F   F   F
  0.5000000000000000  0.8999999999999986  0.3861340725451399   F   F   F
  0.7000000000000028  0.8999999999999986  0.3861340725451399   F   F   F
  0.8999999999999986  0.8999999999999986  0.3861340725451399   F   F   F
  0.1000000000000014  0.0333333333333314  0.4529602375412907   F   F   F
  0.2999999999999972  0.0333333333333314  0.4529602375412907   F   F   F
  0.5000000000000000  0.0333333333333314  0.4529602375412907   F   F   F
  0.7000000000000028  0.0333333333333314  0.4529602375412907   F   F   F
  0.8999999999999986  0.0333333333333314  0.4529602375412907   F   F   F
  0.0000000000000000  0.1333333333333329  0.4529602375412907   F   F   F
  0.2000000000000028  0.1333333333333329  0.4529602375412907   F   F   F
  0.3999999999999986  0.1333333333333329  0.4529602375412907   F   F   F
  0.6000000000000014  0.1333333333333329  0.4529602375412907   F   F   F
  0.7999999999999972  0.1333333333333329  0.4529602375412907   F   F   F
  0.1000000000000014  0.2333333333333343  0.4529602375412907   F   F   F
  0.2999999999999972  0.2333333333333343  0.4529602375412907   F   F   F
  0.5000000000000000  0.2333333333333343  0.4529602375412907   F   F   F
  0.7000000000000028  0.2333333333333343  0.4529602375412907   F   F   F
  0.8999999999999986  0.2333333333333343  0.4529602375412907   F   F   F
  0.0000000000000000  0.3333333333333357  0.4529602375412907   F   F   F
  0.2000000000000028  0.3333333333333357  0.4529602375412907   F   F   F
  0.3999999999999986  0.3333333333333357  0.4529602375412907   F   F   F
  0.6000000000000014  0.3333333333333357  0.4529602375412907   F   F   F
  0.7999999999999972  0.3333333333333357  0.4529602375412907   F   F   F
  0.1000000000000014  0.4333333333333300  0.4529602375412907   F   F   F
  0.2999999999999972  0.4333333333333300  0.4529602375412907   F   F   F
  0.5000000000000000  0.4333333333333300  0.4529602375412907   F   F   F
  0.7000000000000028  0.4333333333333300  0.4529602375412907   F   F   F
  0.8999999999999986  0.4333333333333300  0.4529602375412907   F   F   F
  0.0000000000000000  0.5333333333333314  0.4529602375412907   F   F   F
  0.2000000000000028  0.5333333333333314  0.4529602375412907   F   F   F
  0.3999999999999986  0.5333333333333314  0.4529602375412907   F   F   F
  0.6000000000000014  0.5333333333333314  0.4529602375412907   F   F   F
  0.7999999999999972  0.5333333333333314  0.4529602375412907   F   F   F
  0.1000000000000014  0.6333333333333329  0.4529602375412907   F   F   F
  0.2999999999999972  0.6333333333333329  0.4529602375412907   F   F   F
  0.5000000000000000  0.6333333333333329  0.4529602375412907   F   F   F
  0.7000000000000028  0.6333333333333329  0.4529602375412907   F   F   F
  0.8999999999999986  0.6333333333333329  0.4529602375412907   F   F   F
  0.0000000000000000  0.7333333333333343  0.4529602375412907   F   F   F
  0.2000000000000028  0.7333333333333343  0.4529602375412907   F   F   F
  0.3999999999999986  0.7333333333333343  0.4529602375412907   F   F   F
  0.6000000000000014  0.7333333333333343  0.4529602375412907   F   F   F
  0.7999999999999972  0.7333333333333343  0.4529602375412907   F   F   F
  0.1000000000000014  0.8333333333333357  0.4529602375412907   F   F   F
  0.2999999999999972  0.8333333333333357  0.4529602375412907   F   F   F
  0.5000000000000000  0.8333333333333357  0.4529602375412907   F   F   F
  0.7000000000000028  0.8333333333333357  0.4529602375412907   F   F   F
  0.8999999999999986  0.8333333333333357  0.4529602375412907   F   F   F
  0.0000000000000000  0.9333333333333371  0.4529602375412907   F   F   F
  0.2000000000000028  0.9333333333333371  0.4529602375412907   F   F   F
  0.3999999999999986  0.9333333333333371  0.4529602375412907   F   F   F
  0.6000000000000014  0.9333333333333371  0.4529602375412907   F   F   F
  0.7999999999999972  0.9333333333333371  0.4529602375412907   F   F   F
  0.0000000000000000  0.0667306619957716  0.5187355687526168   T   T   T
  0.1999443620522620  0.0666688251932660  0.5187354691979777   T   T   T
  0.4000272274206703  0.0666858337081490  0.5187337141140314   T   T   T
  0.5999727725793292  0.0666858337081490  0.5187337141140314   T   T   T
  0.8000556379477383  0.0666688251932660  0.5187354691979777   T   T   T
  0.1000456999590690  0.1666735982781171  0.5187345246725336   T   T   T
  0.3000100708627946  0.1667034420783073  0.5187346971226476   T   T   T
  0.5000000000000000  0.1666874522152333  0.5187339399466996   T   T   T
  0.6999899291372053  0.1667034420783073  0.5187346971226476   T   T   T
  0.8999543000409309  0.1666735982781171  0.5187345246725336   T   T   T
  0.0000000000000000  0.2666952395096602  0.5187339772105725   T   T   T
  0.1999731270714939  0.2666983572946877  0.5187336570124448   T   T   T
  0.3999816530541456  0.2666766341991203  0.5187337896263325   T   T   T
  0.6000183469458549  0.2666766341991203  0.5187337896263325   T   T   T
  0.8000268729285058  0.2666983572946877  0.5187336570124448   T   T   T
  0.0999849093364961  0.3666856852476930  0.5187338482994720   T   T   T
  0.3000432102235171  0.3666745870960058  0.5187349795549159   T   T   T
  0.5000000000000000  0.3667243476366335  0.5187348160665202   T   T   T
  0.6999567897764822  0.3666745870960058  0.5187349795549159   T   T   T
  0.9000150906635038  0.3666856852476930  0.5187338482994720   T   T   T
  0.0000000000000000  0.4666711339417856  0.5187343673608051   T   T   T
  0.2000035488825974  0.4667182513902385  0.5187338890384868   T   T   T
  0.3999402177910719  0.4666681104444007  0.5187365585015283   T   T   T
  0.6000597822089286  0.4666681104444007  0.5187365585015283   T   T   T
  0.7999964511174026  0.4667182513902385  0.5187338890384868   T   T   T
  0.0999727725793296  0.5666858337081483  0.5187337141140314   T   T   T
  0.3000556379477379  0.5666688251932664  0.5187354691979777   T   T   T
  0.5000000000000000  0.5667306619957712  0.5187355687526168   T   T   T
  0.6999443620522617  0.5666688251932664  0.5187354691979777   T   T   T
  0.9000272274206708  0.5666858337081483  0.5187337141140314   T   T   T
  0.0000000000000000  0.6666874522152338  0.5187339399466996   T   T   T
  0.1999899291372054  0.6667034420783069  0.5187346971226476   T   T   T
  0.3999543000409308  0.6666735982781172  0.5187345246725336   T   T   T
  0.6000456999590691  0.6666735982781172  0.5187345246725336   T   T   T
  0.8000100708627947  0.6667034420783069  0.5187346971226476   T   T   T
  0.1000183469458544  0.7666766341991202  0.5187337896263325   T   T   T
  0.3000268729285060  0.7666983572946877  0.5187336570124448   T   T   T
  0.5000000000000000  0.7666952395096605  0.5187339772105725   T   T   T
  0.6999731270714942  0.7666983572946877  0.5187336570124448   T   T   T
  0.8999816530541451  0.7666766341991202  0.5187337896263325   T   T   T
  0.0000000000000000  0.8667243476366329  0.5187348160665202   T   T   T
  0.1999567897764828  0.8666745870960053  0.5187349795549159   T   T   T
  0.4000150906635039  0.8666856852476922  0.5187338482994720   T   T   T
  0.5999849093364962  0.8666856852476922  0.5187338482994720   T   T   T
  0.8000432102235178  0.8666745870960053  0.5187349795549159   T   T   T
  0.1000597822089282  0.9666681104444003  0.5187365585015283   T   T   T
  0.2999964511174028  0.9667182513902383  0.5187338890384868   T   T   T
  0.5000000000000000  0.9666711339417856  0.5187343673608051   T   T   T
  0.7000035488825974  0.9667182513902383  0.5187338890384868   T   T   T
  0.8999402177910714  0.9666681104444003  0.5187365585015283   T   T   T
  0.0000000000000000  0.0000849732725262  0.5839561623952535   T   T   T
  0.2000385061334885  0.0000841599615510  0.5841949924571057   T   T   T
  0.4001438541368426  0.0000815370169235  0.5841263844578356   T   T   T
  0.5998561458631576  0.0000815370169235  0.5841263844578356   T   T   T
  0.7999614938665114  0.0000841599615510  0.5841949924571057   T   T   T
  0.1000248358967330  0.1001002558096650  0.5841916534987405   T   T   T
  0.2998697870330301  0.1000394976199631  0.5840279445705868   T   T   T
  0.5000000000000000  0.1001367719020815  0.5841513069929101   T   T   T
  0.7001302129669696  0.1000394976199631  0.5840279445705868   T   T   T
  0.8999751641032668  0.1001002558096650  0.5841916534987405   T   T   T
  0.0000000000000000  0.2000002185331268  0.5840281576165146   T   T   T
  0.2000696572407555  0.2001554338587245  0.5841286090620423   T   T   T
  0.4000914258655685  0.2000543204975409  0.5841493047842782   T   T   T
  0.5999085741344317  0.2000543204975409  0.5841493047842782   T   T   T
  0.7999303427592447  0.2001554338587245  0.5841286090620423   T   T   T
  0.0999217719173973  0.3001093979118311  0.5841489735665455   T   T   T
  0.2999235183726821  0.3000133173901024  0.5841280779048711   T   T   T
  0.5000000000000000  0.3001678429138960  0.5840284707321590   T   T   T
  0.7000764816273179  0.3000133173901024  0.5841280779048711   T   T   T
  0.9000782280826025  0.3001093979118311  0.5841489735665455   T   T   T
  0.0000000000000000  0.4000365341003633  0.5841515964081686   T   T   T
  0.2001249421522962  0.4001279995828614  0.5840274138536915   T   T   T
  0.3999841798774399  0.4000632185941310  0.5841917616447748   T   T   T
  0.6000158201225608  0.4000632185941310  0.5841917616447748   T   T   T
  0.7998750578477041  0.4001279995828614  0.5840274138536915   T   T   T
  0.0998561458631577  0.5000815370169233  0.5841263844578356   T   T   T
  0.2999614938665114  0.5000841599615505  0.5841949924571057   T   T   T
  0.5000000000000000  0.5000849732725265  0.5839561623952535   T   T   T
  0.7000385061334886  0.5000841599615505  0.5841949924571057   T   T   T
  0.9001438541368424  0.5000815370169233  0.5841263844578356   T   T   T
  0.0000000000000000  0.6001367719020816  0.5841513069929101   T   T   T
  0.2001302129669698  0.6000394976199630  0.5840279445705868   T   T   T
  0.3999751641032668  0.6001002558096650  0.5841916534987405   T   T   T
  0.6000248358967332  0.6001002558096650  0.5841916534987405   T   T   T
  0.7998697870330304  0.6000394976199630  0.5840279445705868   T   T   T
  0.0999085741344315  0.7000543204975411  0.5841493047842782   T   T   T
  0.2999303427592446  0.7001554338587243  0.5841286090620423   T   T   T
  0.5000000000000000  0.7000002185331273  0.5840281576165146   T   T   T
  0.7000696572407553  0.7001554338587243  0.5841286090620423   T   T   T
  0.9000914258655683  0.7000543204975411  0.5841493047842782   T   T   T
  0.0000000000000000  0.8001678429138956  0.5840284707321590   T   T   T
  0.2000764816273182  0.8000133173901025  0.5841280779048711   T   T   T
  0.4000782280826027  0.8001093979118308  0.5841489735665455   T   T   T
  0.5999217719173975  0.8001093979118308  0.5841489735665455   T   T   T
  0.7999235183726821  0.8000133173901025  0.5841280779048711   T   T   T
  0.1000158201225604  0.9000632185941306  0.5841917616447748   T   T   T
  0.2998750578477039  0.9001279995828618  0.5840274138536915   T   T   T
  0.5000000000000000  0.9000365341003633  0.5841515964081686   T   T   T
  0.7001249421522959  0.9001279995828618  0.5840274138536915   T   T   T
  0.8999841798774392  0.9000632185941306  0.5841917616447748   T   T   T
  0.7222255326333391  0.9444340683760636  0.6872149232826966   T   T   T
  0.7777607229643847  0.0000003166800824  0.6871286164175352   T   T   T
  0.7222247601076691  0.0555660326503461  0.6872141260634135   T   T   T
  0.7777503399058162  0.1111092257410860  0.6872129306532923   T   T   T
  0.7222392925936404  0.1666675599350427  0.6872302296728667   T   T   T
  0.7777669198410713  0.2222095192659635  0.6871623795203704   T   T   T
  0.7222325614963920  0.2777917491571379  0.6871632311082809   T   T   T
  0.7777615028563661  0.3333336855198269  0.6872281175325203   T   T   T
  0.7222506184556008  0.3888921297841205  0.6872149154667397   T   T   T
  0.7777744673666609  0.4444340683760639  0.6872149232826966   T   T   T
  0.7222392770356153  0.5000003166800822  0.6871286164175352   T   T   T
  0.7777752398923309  0.5555660326503461  0.6872141260634135   T   T   T
  0.7222496600941838  0.6111092257410856  0.6872129306532923   T   T   T
  0.7777607074063596  0.6666675599350430  0.6872302296728667   T   T   T
  0.7222330801589287  0.7222095192659640  0.6871623795203704   T   T   T
  0.7777674385036080  0.7777917491571384  0.6871632311082809   T   T   T
  0.7222384971436339  0.8333336855198271  0.6872281175325203   T   T   T
  0.7777493815443992  0.8888921297841207  0.6872149154667397   T   T   T
  0.5555845464081745  0.0000008985307463  0.6871601793197342   T   T   T
  0.6111059950633790  0.0555542553395256  0.6872300636023602   T   T   T
  0.5555517811544909  0.1111078018705410  0.6871825896539147   T   T   T
  0.6111008298404170  0.1666776330037585  0.6871816127457382   T   T   T
  0.5555796441150231  0.2222196976392329  0.6871774190561954   T   T   T
  0.6111044285547600  0.2777820515810115  0.6872280612414603   T   T   T
  0.5555589989213162  0.3333275837166748  0.6872121747634850   T   T   T
  0.6110820090569548  0.3888955802781956  0.6871287921550008   T   T   T
  0.5555709417261731  0.4444459750805571  0.6872211938076477   T   T   T
  0.6111038585679295  0.5000007049446944  0.6872198081237643   T   T   T
  0.5555708543226304  0.5555550429259306  0.6872209855274620   T   T   T
  0.6110865892575552  0.6111050097943310  0.6871278544653497   T   T   T
  0.5555601311063610  0.6666734441263936  0.6872143994503165   T   T   T
  0.6111039403844676  0.7222193345434195  0.6872249884799602   T   T   T
  0.5555802524390444  0.7777820474749860  0.6871787082271393   T   T   T
  0.6111011804777121  0.8333234903564066  0.6871817846663415   T   T   T
  0.5555515720831962  0.8888935362712390  0.6871836636515801   T   T   T
  0.6111051817908216  0.9444465986829019  0.6872269322102161   T   T   T
  0.3888948182091782  0.9444465986829019  0.6872269322102161   T   T   T
  0.4444154535918253  0.0000008985307463  0.6871601793197342   T   T   T
  0.3888940049366209  0.0555542553395256  0.6872300636023602   T   T   T
  0.4444482188455083  0.1111078018705410  0.6871825896539147   T   T   T
  0.3888991701595830  0.1666776330037585  0.6871816127457382   T   T   T
  0.4444203558849772  0.2222196976392329  0.6871774190561954   T   T   T
  0.3888955714452399  0.2777820515810115  0.6872280612414603   T   T   T
  0.4444410010786840  0.3333275837166748  0.6872121747634850   T   T   T
  0.3889179909430454  0.3888955802781956  0.6871287921550008   T   T   T
  0.4444290582738269  0.4444459750805571  0.6872211938076477   T   T   T
  0.3888961414320712  0.5000007049446944  0.6872198081237643   T   T   T
  0.4444291456773694  0.5555550429259306  0.6872209855274620   T   T   T
  0.3889134107424447  0.6111050097943310  0.6871278544653497   T   T   T
  0.4444398688936388  0.6666734441263936  0.6872143994503165   T   T   T
  0.3888960596155325  0.7222193345434195  0.6872249884799602   T   T   T
  0.4444197475609558  0.7777820474749860  0.6871787082271393   T   T   T
  0.3888988195222880  0.8333234903564066  0.6871817846663415   T   T   T
  0.4444484279168038  0.8888935362712390  0.6871836636515801   T   T   T
  0.2222392770356155  0.0000003166800824  0.6871286164175352   T   T   T
  0.2777752398923310  0.0555660326503461  0.6872141260634135   T   T   T
  0.2222496600941839  0.1111092257410860  0.6872129306532923   T   T   T
  0.2777607074063593  0.1666675599350427  0.6872302296728667   T   T   T
  0.2222330801589288  0.2222095192659635  0.6871623795203704   T   T   T
  0.2777674385036079  0.2777917491571379  0.6871632311082809   T   T   T
  0.2222384971436338  0.3333336855198269  0.6872281175325203   T   T   T
  0.2777493815443992  0.3888921297841205  0.6872149154667397   T   T   T
  0.2222255326333392  0.4444340683760639  0.6872149232826966   T   T   T
  0.2777607229643847  0.5000003166800822  0.6871286164175352   T   T   T
  0.2222247601076692  0.5555660326503461  0.6872141260634135   T   T   T
  0.2777503399058160  0.6111092257410856  0.6872129306532923   T   T   T
  0.2222392925936407  0.6666675599350430  0.6872302296728667   T   T   T
  0.2777669198410712  0.7222095192659640  0.6871623795203704   T   T   T
  0.2222325614963920  0.7777917491571384  0.6871632311082809   T   T   T
  0.2777615028563662  0.8333336855198271  0.6872281175325203   T   T   T
  0.2222506184556007  0.8888921297841207  0.6872149154667397   T   T   T
  0.2777744673666611  0.9444340683760636  0.6872149232826966   T   T   T
  0.0555709417261733  0.9444459750805567  0.6872211938076477   T   T   T
  0.1111038585679289  0.0000007049446947  0.6872198081237643   T   T   T
  0.0555708543226304  0.0555550429259302  0.6872209855274620   T   T   T
  0.1110865892575554  0.1111050097943311  0.6871278544653497   T   T   T
  0.0555601311063611  0.1666734441263933  0.6872143994503165   T   T   T
  0.1111039403844676  0.2222193345434195  0.6872249884799602   T   T   T
  0.0555802524390441  0.2777820474749854  0.6871787082271393   T   T   T
  0.1111011804777121  0.3333234903564067  0.6871817846663415   T   T   T
  0.0555515720831962  0.3888935362712392  0.6871836636515801   T   T   T
  0.1111051817908217  0.4444465986829020  0.6872269322102161   T   T   T
  0.0555845464081746  0.5000008985307464  0.6871601793197342   T   T   T
  0.1111059950633793  0.5555542553395254  0.6872300636023602   T   T   T
  0.0555517811544917  0.6111078018705411  0.6871825896539147   T   T   T
  0.1111008298404169  0.6666776330037586  0.6871816127457382   T   T   T
  0.0555796441150228  0.7222196976392332  0.6871774190561954   T   T   T
  0.1111044285547601  0.7777820515810117  0.6872280612414603   T   T   T
  0.0555589989213161  0.8333275837166755  0.6872121747634850   T   T   T
  0.1110820090569547  0.8888955802781955  0.6871287921550008   T   T   T
  0.8888961414320705  0.0000007049446947  0.6872198081237643   T   T   T
  0.9444291456773696  0.0555550429259302  0.6872209855274620   T   T   T
  0.8889134107424448  0.1111050097943311  0.6871278544653497   T   T   T
  0.9444398688936390  0.1666734441263933  0.6872143994503165   T   T   T
  0.8888960596155324  0.2222193345434195  0.6872249884799602   T   T   T
  0.9444197475609556  0.2777820474749854  0.6871787082271393   T   T   T
  0.8888988195222879  0.3333234903564067  0.6871817846663415   T   T   T
  0.9444484279168038  0.3888935362712392  0.6871836636515801   T   T   T
  0.8888948182091784  0.4444465986829020  0.6872269322102161   T   T   T
  0.9444154535918255  0.5000008985307464  0.6871601793197342   T   T   T
  0.8888940049366210  0.5555542553395254  0.6872300636023602   T   T   T
  0.9444482188455091  0.6111078018705411  0.6871825896539147   T   T   T
  0.8888991701595830  0.6666776330037586  0.6871816127457382   T   T   T
  0.9444203558849769  0.7222196976392332  0.6871774190561954   T   T   T
  0.8888955714452400  0.7777820515810117  0.6872280612414603   T   T   T
  0.9444410010786838  0.8333275837166755  0.6872121747634850   T   T   T
  0.8889179909430452  0.8888955802781955  0.6871287921550008   T   T   T
  0.9444290582738269  0.9444459750805567  0.6872211938076477   T   T   T
 
  0.00000000E+00  0.00000000E+00  0.00000000E+00
  0.00000000E+00  0.00000000E+00  0.00000000E+00
  0.00000000E+00  0.00000000E+00  0.00000000E+00
  0.00000000E+00  0.00000000E+00  0.00000000E+00
  0.00000000E+00  0.00000000E+00  0.00000000E+00
  0.00000000E+00  0.00000000E+00  0.00000000E+00
  0.00000000E+00  0.00000000E+00  0.00000000E+00
  0.00000000E+00  0.00000000E+00  0.00000000E+00
  0.00000000E+00  0.00000000E+00  0.00000000E+00
  0.00000000E+00  0.00000000E+00  0.00000000E+00
  0.00000000E+00  0.00000000E+00  0.00000000E+00
  0.00000000E+00  0.00000000E+00  0.00000000E+00
  0.00000000E+00  0.00000000E+00  0.00000000E+00
  0.00000000E+00  0.00000000E+00  0.00000000E+00
  0.00000000E+00  0.00000000E+00  0.00000000E+00
  0.00000000E+00  0.00000000E+00  0.00000000E+00
  0.00000000E+00  0.00000000E+00  0.00000000E+00
  0.00000000E+00  0.00000000E+00  0.00000000E+00
  0.00000000E+00  0.00000000E+00  0.00000000E+00
  0.00000000E+00  0.00000000E+00  0.00000000E+00
  0.00000000E+00  0.00000000E+00  0.00000000E+00
  0.00000000E+00  0.00000000E+00  0.00000000E+00
  0.00000000E+00  0.00000000E+00  0.00000000E+00
  0.00000000E+00  0.00000000E+00  0.00000000E+00
  0.00000000E+00  0.00000000E+00  0.00000000E+00
  0.00000000E+00  0.00000000E+00  0.00000000E+00
  0.00000000E+00  0.00000000E+00  0.00000000E+00
  0.00000000E+00  0.00000000E+00  0.00000000E+00
  0.00000000E+00  0.00000000E+00  0.00000000E+00
  0.00000000E+00  0.00000000E+00  0.00000000E+00
  0.00000000E+00  0.00000000E+00  0.00000000E+00
  0.00000000E+00  0.00000000E+00  0.00000000E+00
  0.00000000E+00  0.00000000E+00  0.00000000E+00
  0.00000000E+00  0.00000000E+00  0.00000000E+00
  0.00000000E+00  0.00000000E+00  0.00000000E+00
  0.00000000E+00  0.00000000E+00  0.00000000E+00
  0.00000000E+00  0.00000000E+00  0.00000000E+00
  0.00000000E+00  0.00000000E+00  0.00000000E+00
  0.00000000E+00  0.00000000E+00  0.00000000E+00
  0.00000000E+00  0.00000000E+00  0.00000000E+00
  0.00000000E+00  0.00000000E+00  0.00000000E+00
  0.00000000E+00  0.00000000E+00  0.00000000E+00
  0.00000000E+00  0.00000000E+00  0.00000000E+00
  0.00000000E+00  0.00000000E+00  0.00000000E+00
  0.00000000E+00  0.00000000E+00  0.00000000E+00
  0.00000000E+00  0.00000000E+00  0.00000000E+00
  0.00000000E+00  0.00000000E+00  0.00000000E+00
  0.00000000E+00  0.00000000E+00  0.00000000E+00
  0.00000000E+00  0.00000000E+00  0.00000000E+00
  0.00000000E+00  0.00000000E+00  0.00000000E+00
  0.00000000E+00  0.00000000E+00  0.00000000E+00
  0.00000000E+00  0.00000000E+00  0.00000000E+00
  0.00000000E+00  0.00000000E+00  0.00000000E+00
  0.00000000E+00  0.00000000E+00  0.00000000E+00
  0.00000000E+00  0.00000000E+00  0.00000000E+00
  0.00000000E+00  0.00000000E+00  0.00000000E+00
  0.00000000E+00  0.00000000E+00  0.00000000E+00
  0.00000000E+00  0.00000000E+00  0.00000000E+00
  0.00000000E+00  0.00000000E+00  0.00000000E+00
  0.00000000E+00  0.00000000E+00  0.00000000E+00
  0.00000000E+00  0.00000000E+00  0.00000000E+00
  0.00000000E+00  0.00000000E+00  0.00000000E+00
  0.00000000E+00  0.00000000E+00  0.00000000E+00
  0.00000000E+00  0.00000000E+00  0.00000000E+00
  0.00000000E+00  0.00000000E+00  0.00000000E+00
  0.00000000E+00  0.00000000E+00  0.00000000E+00
  0.00000000E+00  0.00000000E+00  0.00000000E+00
  0.00000000E+00  0.00000000E+00  0.00000000E+00
  0.00000000E+00  0.00000000E+00  0.00000000E+00
  0.00000000E+00  0.00000000E+00  0.00000000E+00
  0.00000000E+00  0.00000000E+00  0.00000000E+00
  0.00000000E+00  0.00000000E+00  0.00000000E+00