 SYSTEM = Graphene@Cu(111) - E0

 Flags which affect the runtime for parallel jobs (and don't change the results)
   ALGO = Fast   
   LPLANE = .TRUE.
   NSIM = 1 
   NPAR = 8 

 Start parameter for this Run:
   ISTART = 0 
   ICHARG = 2 
   LWAVE  = F 
   LCHARG = T  

 Electronic Relaxation
   EDIFF =  1E-5
   NELMIN = 8 ! do a minimum of eight electronic steps
   ENCUT = 500.000
   ENAUG = 644.873
   LMAXMIX = 4 

 vdW settings
   LUSE_VDW = .TRUE.
   AGGAC = 0.0000    ! Removing PBE correlation correction, since only LDA correlation is used in the vdW-DF functionals
   GGA = MK          ! selects the optB86b exchange functional
   PARAM1 = 0.1234   ! parameters for the optB86b exchange functional
   PARAM2 = 1.0000   ! parameters for the optB86b exchange functional

 Ionic Relaxation
   IBRION = -1 ! No update. Ions are not moved. 
   ISIF = 2
   NSW = 0

 DOS related values
   ISMEAR = -5  ! Tetrahedron method with Blochl corrections (use a Gamma-centered k-mesh)
   LORBIT=11 ! Write the DOSCAR and lm decomposed PROCAR files

 Evaluate projections operators in real-space or in reciprocal space
   LREAL = Auto

 Monopole, Dipole and Quadrupole corrections
   IDIPOL = 3
   LDIPOL = .TRUE.
   DIPOL = 0.50000   0.50000   0.50000

 Precision
   PREC = Normal
