2.467 (this is the header of the input kpts file)
13
Reciprocal coords w.r.t. the SCRL vectors:
   0.0000000  -0.5000000   0.0000000  1
  -0.0833333  -0.4583333   0.0000000  1
  -0.1666667  -0.4166667   0.0000000  1
  -0.2500000  -0.3750000   0.0000000  1
  -0.3333333  -0.3333333   0.0000000  1
  -0.4166667  -0.2916667   0.0000000  1
  -0.5000000  -0.2500000   0.0000000  1
   0.4166667  -0.2083333   0.0000000  1
   0.3333333  -0.1666667   0.0000000  1
   0.2500000  -0.1250000   0.0000000  1
   0.1666667  -0.0833333   0.0000000  1
   0.0833333  -0.0416667   0.0000000  1
   0.0000000   0.0000000   0.0000000  1


! These SC-KPTS unfold onto the pc-kpts listed below: 
! (Fractional coords. wrt. the pc rec. latt. vectors) 
2.467
 13
Line-mode 3.1683781686735077
Reciprocal
   0.000000000  0.500000000  0.000000000    1 ! M2
  -0.333333333  0.333333333  0.000000000    1 ! K2
