2.467 !Line perpend. to K2-G and touching K2 (this is the header of the input kpts file)
25
Reciprocal coords w.r.t. the SCRL vectors:
  -0.5440514   2.0000000   0.0000000  1
  -0.4987137   2.0000000   0.0000000  1
  -0.4533761   2.0000000   0.0000000  1
  -0.4080385   2.0000000   0.0000000  1
  -0.3627009   2.0000000   0.0000000  1
  -0.3173633   2.0000000   0.0000000  1
  -0.2720257   2.0000000   0.0000000  1
  -0.2266881   2.0000000   0.0000000  1
  -0.1813505   2.0000000   0.0000000  1
  -0.1360128   2.0000000   0.0000000  1
  -0.0906752   2.0000000   0.0000000  1
  -0.0453376   2.0000000   0.0000000  1
   0.0000000   2.0000000   0.0000000  1
   0.0453376   2.0000000   0.0000000  1
   0.0906752   2.0000000   0.0000000  1
   0.1360128   2.0000000   0.0000000  1
   0.1813505   2.0000000   0.0000000  1
   0.2266881   2.0000000   0.0000000  1
   0.2720257   2.0000000   0.0000000  1
   0.3173633   2.0000000   0.0000000  1
   0.3627009   2.0000000   0.0000000  1
   0.4080385   2.0000000   0.0000000  1
   0.4533761   2.0000000   0.0000000  1
   0.4987137   2.0000000   0.0000000  1
   0.5440514   2.0000000   0.0000000  1


! These SC-KPTS correspond exacly to the pc-kpts listed below: 
! (Fractional coords. wrt. the pc rec. latt. vectors) 
2.467 !Line perpend. to K2-G and touching K2
25
Line-mode
Cartesian
-0.157054097843 0.666666666667 0.0    1 ! -0.4
0.157054097843 0.666666666667 0.0    1 ! 0.4
