2.467 !Line perpend. to K2-G and touching K2 (this is the header of the input kpts file)
25
Reciprocal coords w.r.t. the SCRL vectors:
   0.4559486   0.0000000   0.0000000  1
  -0.4987137   0.0000000   0.0000000  1
  -0.4533761   0.0000000   0.0000000  1
  -0.4080385   0.0000000   0.0000000  1
  -0.3627009   0.0000000   0.0000000  1
  -0.3173633   0.0000000   0.0000000  1
  -0.2720257   0.0000000   0.0000000  1
  -0.2266881   0.0000000   0.0000000  1
  -0.1813505   0.0000000   0.0000000  1
  -0.1360128   0.0000000   0.0000000  1
  -0.0906752   0.0000000   0.0000000  1
  -0.0453376   0.0000000   0.0000000  1
   0.0000000   0.0000000   0.0000000  1
   0.0453376   0.0000000   0.0000000  1
   0.0906752   0.0000000   0.0000000  1
   0.1360128   0.0000000   0.0000000  1
   0.1813505   0.0000000   0.0000000  1
   0.2266881   0.0000000   0.0000000  1
   0.2720257   0.0000000   0.0000000  1
   0.3173633   0.0000000   0.0000000  1
   0.3627009   0.0000000   0.0000000  1
   0.4080385   0.0000000   0.0000000  1
   0.4533761   0.0000000   0.0000000  1
   0.4987137   0.0000000   0.0000000  1
  -0.4559486   0.0000000   0.0000000  1


! These SC-KPTS unfold onto the pc-kpts listed below: 
! (Fractional coords. wrt. the pc rec. latt. vectors) 
2.467 !Line perpend. to K2-G and touching K2
25
Line-mode
Cartesian
-0.157054097843 0.666666666667 0.0    1 ! -0.4
0.157054097843 0.666666666667 0.0    1 ! 0.4
