2.467 !Line perpend. to K2-G and touching K2
25
Line-mode
Cartesian
-0.157054097843 0.666666666667 0.0    1 ! -0.4
0.157054097843 0.666666666667 0.0    1 ! 0.4
